5365
0 0 0 0 0 0 1 0 0 0 0 0 0 0 0 0 0 1 0 0 0 1 0 0 0 1 0 0 0 1
6 21 6 29 25 17 25 21 29 29 29 25 25 17 6 6 21 21 21 21 25 25 21 17 17 25 29 6 29 29 29 29 25 25 21 17 25 6 21 6 6 6 29 29 29 25 25 17 17 6 17 25 25 6 6 6 21 17 25 29 29 29 25 29 29 29 29 29 29 29
